certificates/rado_a7_c268_N38.cnf
c Rad2 upper bound instance: x1 + 7*x2 - x3 = 268, interval [1,38]
p cnf 38 222
1 3 38 0
-1 -3 -38 0
2 4 38 0
-2 -4 -38 0
3 5 38 0
-3 -5 -38 0
4 6 38 0
-4 -6 -38 0
5 7 38 0
-5 -7 -38 0
6 8 38 0
-6 -8 -38 0
7 9 38 0
-7 -9 -38 0
1 10 37 0
-1 -10 -37 0
8 10 38 0
-8 -10 -38 0
2 11 37 0
-2 -11 -37 0
9 11 38 0
-9 -11 -38 0
3 12 37 0
-3 -12 -37 0
10 12 38 0
-10 -12 -38 0
4 13 37 0
-4 -13 -37 0
11 13 38 0
-11 -13 -38 0
5 14 37 0
-5 -14 -37 0
12 14 38 0
-12 -14 -38 0
6 15 37 0
-6 -15 -37 0
13 15 38 0
-13 -15 -38 0
7 16 37 0
-7 -16 -37 0
14 16 38 0
-14 -16 -38 0
1 17 36 0
-1 -17 -36 0
8 17 37 0
-8 -17 -37 0
15 17 38 0
-15 -17 -38 0
2 18 36 0
-2 -18 -36 0
9 18 37 0
-9 -18 -37 0
16 18 38 0
-16 -18 -38 0
3 19 36 0
-3 -19 -36 0
10 19 37 0
-10 -19 -37 0
17 19 38 0
-17 -19 -38 0
4 20 36 0
-4 -20 -36 0
11 20 37 0
-11 -20 -37 0
18 20 38 0
-18 -20 -38 0
5 21 36 0
-5 -21 -36 0
12 21 37 0
-12 -21 -37 0
19 21 38 0
-19 -21 -38 0
6 22 36 0
-6 -22 -36 0
13 22 37 0
-13 -22 -37 0
20 22 38 0
-20 -22 -38 0
7 23 36 0
-7 -23 -36 0
14 23 37 0
-14 -23 -37 0
21 23 38 0
-21 -23 -38 0
1 24 35 0
-1 -24 -35 0
8 24 36 0
-8 -24 -36 0
15 24 37 0
-15 -24 -37 0
22 24 38 0
-22 -24 -38 0
2 25 35 0
-2 -25 -35 0
9 25 36 0
-9 -25 -36 0
16 25 37 0
-16 -25 -37 0
23 25 38 0
-23 -25 -38 0
3 26 35 0
-3 -26 -35 0
10 26 36 0
-10 -26 -36 0
17 26 37 0
-17 -26 -37 0
24 26 38 0
-24 -26 -38 0
4 27 35 0
-4 -27 -35 0
11 27 36 0
-11 -27 -36 0
18 27 37 0
-18 -27 -37 0
25 27 38 0
-25 -27 -38 0
5 28 35 0
-5 -28 -35 0
12 28 36 0
-12 -28 -36 0
19 28 37 0
-19 -28 -37 0
26 28 38 0
-26 -28 -38 0
6 29 35 0
-6 -29 -35 0
13 29 36 0
-13 -29 -36 0
20 29 37 0
-20 -29 -37 0
27 29 38 0
-27 -29 -38 0
7 30 35 0
-7 -30 -35 0
14 30 36 0
-14 -30 -36 0
21 30 37 0
-21 -30 -37 0
28 30 38 0
-28 -30 -38 0
1 31 34 0
-1 -31 -34 0
8 31 35 0
-8 -31 -35 0
15 31 36 0
-15 -31 -36 0
22 31 37 0
-22 -31 -37 0
29 31 38 0
-29 -31 -38 0
2 32 34 0
-2 -32 -34 0
9 32 35 0
-9 -32 -35 0
16 32 36 0
-16 -32 -36 0
23 32 37 0
-23 -32 -37 0
30 32 38 0
-30 -32 -38 0
3 33 34 0
-3 -33 -34 0
10 33 35 0
-10 -33 -35 0
17 33 36 0
-17 -33 -36 0
24 33 37 0
-24 -33 -37 0
31 33 38 0
-31 -33 -38 0
4 34 0
-4 -34 0
11 34 35 0
-11 -34 -35 0
18 34 36 0
-18 -34 -36 0
25 34 37 0
-25 -34 -37 0
32 34 38 0
-32 -34 -38 0
5 34 35 0
-5 -34 -35 0
12 35 0
-12 -35 0
19 35 36 0
-19 -35 -36 0
26 35 37 0
-26 -35 -37 0
33 35 38 0
-33 -35 -38 0
6 34 36 0
-6 -34 -36 0
13 35 36 0
-13 -35 -36 0
20 36 0
-20 -36 0
27 36 37 0
-27 -36 -37 0
34 36 38 0
-34 -36 -38 0
7 34 37 0
-7 -34 -37 0
14 35 37 0
-14 -35 -37 0
21 36 37 0
-21 -36 -37 0
28 37 0
-28 -37 0
35 37 38 0
-35 -37 -38 0
1 33 38 0
-1 -33 -38 0
8 34 38 0
-8 -34 -38 0
15 35 38 0
-15 -35 -38 0
22 36 38 0
-22 -36 -38 0
29 37 38 0
-29 -37 -38 0
36 38 0
-36 -38 0
