certificates/rado_a7_c268_N38.drat
-38 0
36 0
-20 0
18 0
22 0
-2 0
-34 0
-6 0
4 0
32 0
8 0
-16 0
-24 0
14 0
26 0
-30 0
-10 0
28 0
12 0
0
